(declare-fun epsabs_ack!78 () (_ BitVec 64))
(declare-fun epsrel_ack!79 () (_ BitVec 64))
(declare-fun FPCHECK_FMUL_ACCURACY ((_ BitVec 64) (_ BitVec 64)) Bool)
(declare-fun b_ack!77 () (_ BitVec 64))
(assert (not (fp.lt ((_ to_fp 11 53) epsabs_ack!78)
            ((_ to_fp 11 53) #x0000000000000000))))
(assert (not (fp.lt ((_ to_fp 11 53) epsrel_ack!79)
            ((_ to_fp 11 53) #x0000000000000000))))
(assert (FPCHECK_FMUL_ACCURACY #x3ff0000000000000 b_ack!77))

(check-sat)
(exit)
